p cnf 29 30
1 2 3 4 0
1 2 -3 4 0
1 -2 3 5 0
1 -2 -3 4 0
-1 2 3 4 0
6 7 8 1 2 3 20 0
6 7 8 1 2 -3 29 0
6 7 8 1 -2 3 28 0
6 7 8 1 -2 -3 9 0
6 7 8 -1 2 3 10 0
6 7 -8 1 2 3 11 0
6 7 -8 1 2 -3 12 0
6 7 -8 1 -2 3 21 0
6 7 -8 1 -2 -3 22 0
6 7 -8 -1 2 3 23 0
6 -7 8 1 2 3 13 0
6 -7 8 1 2 -3 14 0
6 -7 8 1 -2 3 17 0
6 -7 8 1 -2 -3 23 0
6 -7 8 -1 2 3 27 0
6 -7 -8 1 2 3 15 0
6 -7 -8 1 2 -3 24 0
6 -7 -8 1 -2 3 16 0
6 -7 -8 1 -2 -3 18 0
6 -7 -8 -1 2 3 19 0
-6 7 8 1 2 3 11 0
-6 7 8 1 2 -3 12 0
-6 7 8 1 -2 3 25 0
-6 7 8 1 -2 -3 26 0
-6 7 8 -1 2 3 14 0
